12 32 3 10
10 19 9 9 5 15 16 18 8 13 12 17 3 16 1 8 4 15 2 4 3 11 13 5 8 10 10 6 3 9 15 14 
6.82 3.22 6.8 3.33 5.3 4.06 7.84 0.57 4.88 4.11 3.66 4.42 4.52 0.44 5.31 4.03 7.64 1.26 1.08 4.43 7.46 7.81 0.02 0.69 6.57 7.68 7.96 2.83 6.62 6.75 1.11 3.84 
7.77 0.84 4.14 1.2 6.87 2.83 2.05 3.95 2.53 3.03 6.56 4.82 1.1 7.24 6.03 7.7 4.32 5.94 3.39 0.52 5.45 1.28 7.48 4.46 2.07 7.64 5.68 3.03 6.17 1.47 7.26 7.18 
6.4 1.54 5.99 2.53 6.87 5.32 4.33 7.52 0.24 0.44 5.93 5.36 1.85 6.74 2.64 3.73 7.27 7.25 6.95 1.85 7.65 4.56 2.35 3.18 5.2 3.91 3.06 3.1 4.62 2.39 1.1 5.85 
4 4 4 4 4 4 4 4 4 4 4 4 4 4 4 4 4 4 4 4 4 4 4 4 4 4 4 4 4 4 4 4 
5.28 3.61 4.22 0.9 7.29 0.4 2.86 3.56 1.47 7.7 7.14 5.46 0.67 7.78 2.49 2.34 4.75 3.91 7.67 1.82 1.55 6.3 4.92 6.56 6.95 3.04 0.79 3.4 0.97 0.75 7.71 5.28 
6.11 3.6 6.1 4.06 6.17 3.01 1.11 4.23 5.22 3.21 7.54 1.81 6.74 7.15 5.72 1.98 7.69 1.57 4.43 7.94 7.02 7.55 7.63 7.72 1.68 0.63 7.37 0.91 6.17 5.88 1.35 2.89 
7.44 1.44 7.78 2.3 4.67 0.69 5.17 3.91 3.73 6.33 3.65 7.2 0.4 1.03 1.44 7.21 6.67 7.62 1.68 2.51 5.83 3.56 0.64 1.02 1.31 6 6 0.51 1.05 4.37 6.98 5.46 
7.22 5.18 1.9 1.9 6.48 2.53 1.35 2.37 1.38 7.34 2.14 6.09 2.27 5.05 3.51 1.82 6.04 5.88 2.81 4.87 0.6 1.13 7.37 1.33 4.44 6.29 1.99 4.87 2.51 0.32 4.59 2.62 
7.55 0.67 5.8 5.22 2.18 6.47 7.97 6.36 2.05 6.94 4.37 5.9 7.79 5.8 0.2 7.65 5.93 3.3 5.03 4.47 3.01 3.11 6.38 5.91 3.61 5.85 6.02 1.15 4.06 0.94 6.97 7.21 
1.32 7.29 3.03 2.01 2.22 1.8 3.6 6.34 4.59 1.51 1.24 1.63 4.71 2.42 2.56 5.06 0.69 6.74 2.43 3.02 7.85 1.64 6.68 3.74 4.14 4.89 5.03 5.66 4.3 4.69 2.51 2.07 
3.52 1.78 7.14 7.13 0.87 6.04 6.43 6.09 7.63 0.07 7.04 4.15 0.29 2.51 6.65 2.65 1.33 6.5 3.44 6.93 6.02 4.28 3.41 0.8 3.39 1.96 7.9 1.98 3.43 3.12 6.89 1.33 
7.76 5.72 6.99 3.2 1.3 7.14 5.73 0.48 3.73 0.5 6.7 2.68 1.12 0.86 2.47 4.96 5.77 0.74 1.53 3.68 1.18 0.74 7.24 1.2 6.81 7.85 0.28 4.97 8 7.1 0.81 4.81 
1 1 1 1 1 1 1 1 1 1 1 1 1 1 1 1 1 1 1 1 1 1 1 1 1 1 1 1 1 1 1 1 
1 1 1 1 1 1 1 1 1 1 1 1 1 1 1 1 1 1 1 1 1 1 1 1 1 1 1 1 1 1 1 1 
1 1 1 1 1 1 1 1 1 1 1 1 1 1 1 1 1 1 1 1 1 1 1 1 1 1 1 1 1 1 1 1 
1 1 1 1 1 1 1 1 1 1 1 1 1 1 1 1 1 1 1 1 1 1 1 1 1 1 1 1 1 1 1 1 
1 1 1 1 1 1 1 1 1 1 1 1 1 1 1 1 1 1 1 1 1 1 1 1 1 1 1 1 1 1 1 1 
1 1 1 1 1 1 1 1 1 1 1 1 1 1 1 1 1 1 1 1 1 1 1 1 1 1 1 1 1 1 1 1 
1 1 1 1 1 1 1 1 1 1 1 1 1 1 1 1 1 1 1 1 1 1 1 1 1 1 1 1 1 1 1 1 
1 1 1 1 1 1 1 1 1 1 1 1 1 1 1 1 1 1 1 1 1 1 1 1 1 1 1 1 1 1 1 1 
1 1 1 1 1 1 1 1 1 1 1 1 1 1 1 1 1 1 1 1 1 1 1 1 1 1 1 1 1 1 1 1 
1 1 1 1 1 1 1 1 1 1 1 1 1 1 1 1 1 1 1 1 1 1 1 1 1 1 1 1 1 1 1 1 
1 1 1 1 1 1 1 1 1 1 1 1 1 1 1 1 1 1 1 1 1 1 1 1 1 1 1 1 1 1 1 1 
1 1 1 1 1 1 1 1 1 1 1 1 1 1 1 1 1 1 1 1 1 1 1 1 1 1 1 1 1 1 1 1 
0.01 0.01 0.01 0.01 0.01 0.01 0.01 0.01 0.01 0.01 0.01 0.01 0.01 0.01 0.01 0.01 0.01 0.01 0.01 0.01 0.01 0.01 0.01 0.01 0.01 0.01 0.01 0.01 0.01 0.01 0.01 0.01 
0.02 0.02 0.02 0.02 0.02 0.02 0.02 0.02 0.02 0.02 0.02 0.02 0.02 0.02 0.02 0.02 0.02 0.02 0.02 0.02 0.02 0.02 0.02 0.02 0.02 0.02 0.02 0.02 0.02 0.02 0.02 0.02 
0.03 0.03 0.03 0.03 0.03 0.03 0.03 0.03 0.03 0.03 0.03 0.03 0.03 0.03 0.03 0.03 0.03 0.03 0.03 0.03 0.03 0.03 0.03 0.03 0.03 0.03 0.03 0.03 0.03 0.03 0.03 0.03 
0.04 0.04 0.04 0.04 0.04 0.04 0.04 0.04 0.04 0.04 0.04 0.04 0.04 0.04 0.04 0.04 0.04 0.04 0.04 0.04 0.04 0.04 0.04 0.04 0.04 0.04 0.04 0.04 0.04 0.04 0.04 0.04 
0.125 0.125 0.125 0.125 0.125 0.125 0.125 0.125 0.125 0.125 0.125 0.125 0.125 0.125 0.125 0.125 0.125 0.125 0.125 0.125 0.125 0.125 0.125 0.125 0.125 0.125 0.125 0.125 0.125 0.125 0.125 0.125 
0.25 0.25 0.25 0.25 0.25 0.25 0.25 0.25 0.25 0.25 0.25 0.25 0.25 0.25 0.25 0.25 0.25 0.25 0.25 0.25 0.25 0.25 0.25 0.25 0.25 0.25 0.25 0.25 0.25 0.25 0.25 0.25 
0.375 0.375 0.375 0.375 0.375 0.375 0.375 0.375 0.375 0.375 0.375 0.375 0.375 0.375 0.375 0.375 0.375 0.375 0.375 0.375 0.375 0.375 0.375 0.375 0.375 0.375 0.375 0.375 0.375 0.375 0.375 0.375 
0.5 0.5 0.5 0.5 0.5 0.5 0.5 0.5 0.5 0.5 0.5 0.5 0.5 0.5 0.5 0.5 0.5 0.5 0.5 0.5 0.5 0.5 0.5 0.5 0.5 0.5 0.5 0.5 0.5 0.5 0.5 0.5 
0.625 0.625 0.625 0.625 0.625 0.625 0.625 0.625 0.625 0.625 0.625 0.625 0.625 0.625 0.625 0.625 0.625 0.625 0.625 0.625 0.625 0.625 0.625 0.625 0.625 0.625 0.625 0.625 0.625 0.625 0.625 0.625 
0.75 0.75 0.75 0.75 0.75 0.75 0.75 0.75 0.75 0.75 0.75 0.75 0.75 0.75 0.75 0.75 0.75 0.75 0.75 0.75 0.75 0.75 0.75 0.75 0.75 0.75 0.75 0.75 0.75 0.75 0.75 0.75 
0.875 0.875 0.875 0.875 0.875 0.875 0.875 0.875 0.875 0.875 0.875 0.875 0.875 0.875 0.875 0.875 0.875 0.875 0.875 0.875 0.875 0.875 0.875 0.875 0.875 0.875 0.875 0.875 0.875 0.875 0.875 0.875 
1 1 1 1 1 1 1 1 1 1 1 1 1 1 1 1 1 1 1 1 1 1 1 1 1 1 1 1 1 1 1 1 
